NAME : tsp_277_sol.txt
COMMENT : OR-Tools Guided Local Search
TYPE : TOUR
DIMENSION : 50
COST : 5871
STATUS : ROUTING_SUCCESS
GAP : 0.00% (Reference Solution)
TOUR_SECTION
1
31
2
7
11
42
30
29
46
28
20
49
39
13
18
36
16
21
45
17
6
34
25
27
10
43
22
41
26
5
14
23
4
8
35
3
37
15
47
44
32
50
9
38
24
40
19
33
48
12
-1
